C4                                      
   1.00000000000000     
     2.4680316447999999    0.0000000000000000    0.0000000000000000
    -1.2340155378000000    2.1373782660999998    0.0000000000000000
     0.0000000000000000    0.0000000000000000   14.9975624084000003
   C 
     4
Direct
  0.0000000000000000  0.0000000000000000  0.2500000000000000
  0.0000000000000000  0.0000000000000000  0.7500000000000000
  0.3333329860000021  0.6666669849999991  0.2500000000000000
  0.6666669849999991  0.3333329860000021  0.7500000000000000
 
  0.00000000E+00  0.00000000E+00  0.00000000E+00
  0.00000000E+00  0.00000000E+00  0.00000000E+00
  0.00000000E+00  0.00000000E+00  0.00000000E+00
  0.00000000E+00  0.00000000E+00  0.00000000E+00
